200
[20,21,22,23,24,27,28,29,30,31,32,34,35,36,38,39,40,41,42,45,46,47,49,51,53,54,55,56,57,58,59,60,61,62,63,64,65,67,68,69,70,71,72,75,76,79,80,81,83,84,85,86,87,88,89,90,91,92,93,94,95,96,97,99,100,102,103,104,106,109,110,111,112,113,114,116,117,118,120,121,122,123,124,125,126,127,128,130,131,134,135,136,138,139,140,142,144,145,146,147,148,149,150,151,152,153,154,155,156,157,158,159,160]
[3,1,1,1,5,1,1,1,2,3,3,1,3,1,1,3,1,2,1,1,3,2,2,1,1,3,2,1,2,1,1,2,1,1,2,1,2,2,1,2,2,3,2,1,1,1,1,2,3,1,3,2,1,1,3,2,1,3,2,3,3,2,1,1,2,1,1,2,1,1,1,1,1,3,4,2,1,2,1,1,2,2,4,2,2,3,1,1,2,2,1,1,2,3,2,1,1,1,1,3,1,4,1,1,1,1,2,1,2,4,2,2,2]
